sat
(:max-memory          21.05
 :memory              19.57
 :num-allocs          7112214
 :rlimit-count        42858
 :sat-mk-var          1
 :sls-ddfw-flips      799.00
 :sls-ddfw-shifts     21.00
 :solve-eqs-elim-vars 4
 :solve-eqs-steps     1184
 :time                0.15
 :total-time          0.15)
